0 50356 
1 48038 
2 46514 
3 45874 
4 45734 
5 44422 
6 44410 
7 43472 
8 43232 
9 40228 
10 39552 
11 38952 
12 38612 
13 37370 
14 37250 
15 37130 
16 36842 
17 36342 
18 35566 
19 35056 
20 34950 
21 34784 
22 34476 
23 33032 
24 32788 
25 31572 
26 30520 
27 28786 
28 27564 
29 26976 
30 26832 
31 26648 
32 26144 
33 25640 
34 24110 
35 22450 
36 19862 
37 19828 
38 18912 
39 18854 
40 17014 
41 16654 
42 16128 
43 14630 
44 14556 
45 12034 
46 11938 
47 11840 
48 11264 
49 11230 
50 10690 
51 10302 
52 10102 
53 10102 

